************************************************************************
file with basedata            : md371_.bas
initial value random generator: 2073504841
************************************************************************
projects                      :  1
jobs (incl. supersource/sink ):  22
horizon                       :  174
RESOURCES
  - renewable                 :  2   R
  - nonrenewable              :  2   N
  - doubly constrained        :  0   D
************************************************************************
PROJECT INFORMATION:
pronr.  #jobs rel.date duedate tardcost  MPM-Time
    1     20      0       22        9       22
************************************************************************
PRECEDENCE RELATIONS:
jobnr.    #modes  #successors   successors
   1        1          3           2   3   4
   2        3          3           6   9  14
   3        3          3           5   7  15
   4        3          3           6  10  12
   5        3          2          16  18
   6        3          1           8
   7        3          3          13  14  16
   8        3          1          17
   9        3          3          13  19  20
  10        3          3          11  14  16
  11        3          2          17  18
  12        3          1          15
  13        3          1          21
  14        3          2          18  19
  15        3          2          17  20
  16        3          1          21
  17        3          2          19  21
  18        3          1          20
  19        3          1          22
  20        3          1          22
  21        3          1          22
  22        1          0        
************************************************************************
REQUESTS/DURATIONS:
jobnr. mode duration  R 1  R 2  N 1  N 2
------------------------------------------------------------------------
  1      1     0       0    0    0    0
  2      1     6       7    0    9   10
         2     9       7    0    8   10
         3    10       0    8    8   10
  3      1     6       0    8    5    7
         2     9       6    0    4    6
         3    10       6    0    4    5
  4      1     2       0    9    5   10
         2     4       5    0    5   10
         3    10       5    0    4    9
  5      1     1       4    0    6    9
         2     1       0    9    5    7
         3     8       0    4    5    4
  6      1     1       0    9    6    9
         2     2       0    5    5    9
         3     8       5    0    5    9
  7      1     1       0    7    2    6
         2     3       0    3    2    4
         3    10       0    2    1    3
  8      1     1       8    0    3    5
         2     9       0    6    3    4
         3    10       0    4    3    2
  9      1     2       4    0    6    7
         2     5       0    4    5    5
         3     9       4    0    5    3
 10      1     3       0    3    6    6
         2     4       0    3    5    6
         3    10       0    3    3    4
 11      1     2       7    0    7    2
         2     8       0    2    5    2
         3     9       7    0    4    1
 12      1     3       2    0    7    5
         2     3       0    8    6    4
         3    10       0    4    4    3
 13      1     2       4    0    7    4
         2     3       0    6    6    3
         3     5       3    0    5    2
 14      1     2       7    0    5    6
         2     8       0    6    4    5
         3    10       0    4    3    2
 15      1     4       9    0    7   10
         2     4       9    0    9    8
         3     7       0    6    3    7
 16      1     7       0    7   10    8
         2     7       8    0    9   10
         3    10       8    0    9    5
 17      1     5       1    0    7    9
         2     5       0    6    5    7
         3     8       0    6    2    6
 18      1     3       7    0    7    6
         2     6       0    3    7    5
         3     8       2    0    7    4
 19      1     5       8    0    8    9
         2     6       7    0    7    7
         3     7       0    9    4    7
 20      1     2       0    8   10    7
         2     3       0    6    8    6
         3     6       4    0    7    3
 21      1     7      10    0   10    9
         2     9       0    3    7    9
         3     9       6    0    7    8
 22      1     0       0    0    0    0
************************************************************************
RESOURCEAVAILABILITIES:
  R 1  R 2  N 1  N 2
   25   26  125  134
************************************************************************
MAXIMAL LAGS:
from  to  type  delay
    1   12   ES      0
    1    2   ES      0
    2   12   ES      0
    1    3   ES      0
    3   12   ES      0
    1    4   ES      0
    4   12   ES      0
    1    5   ES      0
    5   12   ES      0
    1    6   ES      0
    6   12   ES      0
    1    7   ES      0
    7   12   ES      0
    1    8   ES      0
    8   12   ES      0
    1    9   ES      0
    9   12   ES      0
    1   10   ES      0
   10   12   ES      0
    1   11   ES      0
   11   12   ES      0
    1   12   ES      0
    2    6   SS      6
    2    6   SE      8
    2    6   ES      4
    2    6   EE     11
    2    9   SS     -5
    2    9   SE      1
    9    2   SE      0
    2    9   ES      0
    2    9   EE      1
    2   14   SS    -12
    2   14   SE      6
    2   14   ES      3
    2   14   EE      9
    3    5   SS      6
    3    5   SE      3
    3    5   ES      4
    3    5   EE     -2
    3    7   SS     -2
    3    7   SE    -12
    3    7   ES     12
    3    7   EE    -11
    3   15   SS      9
    3   15   SE      8
    3   15   ES     -3
    3   15   EE     -4
    4    6   SS     -1
    4    6   SE      9
    4    6   ES    -11
    4    6   EE      2
    4   10   SS     10
    4   10   SE     -8
    4   10   ES      7
    4   10   EE      0
    5   16   SS     -7
    5   16   SE      7
    5   16   ES     11
    5   16   EE     12
    5   18   SS     11
    5   18   SE    -12
    5   18   ES      9
    5   18   EE    -10
    6    8   SS    -12
    6    8   SE      2
    6    8   ES      7
    6    8   EE     -5
    7   13   SS     10
    7   13   SE     -7
    7   13   ES     10
    7   13   EE     -8
    7   14   SS      0
    7   14   SE     -1
    7   14   ES     -8
    7   14   EE      2
    7   16   SS      4
    7   16   SE     -7
    7   16   ES     -1
    7   16   EE     -3
    8   17   SS      0
    8   17   SE     -5
    8   17   ES    -12
    8   17   EE     -2
    9   13   SS      7
    9   13   SE     -3
    9   13   ES      9
    9   13   EE    -10
    9   19   SS     11
    9   19   SE     -1
    9   19   ES      1
    9   19   EE      3
    9   20   SS     -9
    9   20   SE    -10
    9   20   ES      2
    9   20   EE      2
   10   11   SS     -2
   10   11   SE     -6
   10   11   ES      6
   10   11   EE      5
   10   14   SS     12
   10   14   SE     11
   10   14   ES      2
   10   14   EE     -7
   10   16   SS     -4
   10   16   SE      8
   10   16   ES     -2
   10   16   EE      5
   11   17   SS    -10
   11   17   SE     10
   11   17   ES      6
   11   17   EE      5
   11   18   SS      2
   11   18   SE      9
   11   18   ES    -11
   11   18   EE      4
   12   15   SS      9
   12   15   SE      4
   12   15   ES     -3
   12   15   EE    -12
   13   21   SS      3
   13   21   SE     -2
   13   21   ES     10
   13   21   EE     -2
   14   18   SS     12
   14   18   SE     -6
   14   18   ES     10
   14   18   EE      5
   14   19   SS    -12
   14   19   SE     -1
   14   19   ES     -6
   14   19   EE     11
   15   17   SS      0
   15   17   SE     -2
   15   17   ES      7
   15   17   EE      8
   15   20   SS      3
   15   20   SE     -8
   15   20   ES      1
   15   20   EE      4
   16   21   SS     -6
   16   21   SE      7
   16   21   ES     -1
   16   21   EE    -11
   17   19   SS     12
   17   19   SE      2
   17   19   ES     11
   17   19   EE     10
   17   21   SS    -12
   17   21   SE     -1
   17   21   ES    -10
   17   21   EE     -6
   18   20   SS    -11
   18   20   SE      1
   18   20   ES      7
   18   20   EE      1
   19   22   SS      2
   19   22   SE     -7
   19   22   ES    -10
   19   22   EE     12
   20   22   SS     -8
   20   22   SE      5
   20   22   ES     -9
   20   22   EE     -2
   21   22   SS      0
   21   22   SE      5
   21   22   ES     -5
   21   22   EE      5
************************************************************************
